p td 22 90
3 1
4 1
5 1
5 3
7 5
7 6
8 6
8 5
8 4
9 4
10 9
10 2
10 4
11 5
11 2
11 3
11 6
12 11
12 3
12 8
12 6
12 4
13 1
13 9
13 2
13 10
13 11
13 12
13 7
13 3
14 12
14 5
14 2
14 10
14 11
14 8
15 10
15 6
15 5
15 9
15 1
15 8
16 3
16 5
16 9
16 13
16 10
17 11
17 7
17 13
17 1
17 15
17 8
17 12
17 4
17 3
18 11
18 1
18 10
18 9
18 3
18 4
19 13
19 7
19 12
19 5
19 10
19 1
19 4
20 4
20 12
20 18
20 5
20 16
21 19
21 9
21 5
21 15
21 17
21 4
21 1
22 9
22 17
22 15
22 6
22 20
22 12
22 14
22 16
22 8
